solution status: optimal solution found
objective value:                     116481.526499974
d11(0,0)                                            1 	(obj:0)
d11(1,1)                                            1 	(obj:0)
d11(2,4)                                            1 	(obj:0)
d11(2,5)                                            1 	(obj:0)
d11(2,6)                                            1 	(obj:0)
d11(2,7)                                            1 	(obj:0)
d11(2,8)                                            1 	(obj:0)
d11(2,9)                                            1 	(obj:0)
d11(2,10)                                           1 	(obj:0)
d11(2,11)                                           1 	(obj:0)
d11(2,12)                                           1 	(obj:0)
d11(3,13)                                           1 	(obj:0)
d11(3,14)                                           1 	(obj:0)
d11(3,16)                                           1 	(obj:0)
d11(3,17)                                           1 	(obj:0)
d11(3,19)                                           1 	(obj:0)
d11(3,20)                                           1 	(obj:0)
d11(3,22)                                           1 	(obj:0)
d11(3,25)                                           1 	(obj:0)
d11(3,26)                                           1 	(obj:0)
d11(3,28)                                           1 	(obj:0)
d11(3,29)                                           1 	(obj:0)
d11(3,31)                                           1 	(obj:0)
d11(3,32)                                           1 	(obj:0)
d11(3,34)                                           1 	(obj:0)
d11(3,35)                                           1 	(obj:0)
d11(3,37)                                           1 	(obj:0)
d11(3,38)                                           1 	(obj:0)
d12(1,3)                                            1 	(obj:0)
d12(3,15)                                           1 	(obj:0)
d12(3,18)                                           1 	(obj:0)
d12(3,21)                                           1 	(obj:0)
d12(3,24)                                           1 	(obj:0)
d12(3,27)                                           1 	(obj:0)
d12(3,30)                                           1 	(obj:0)
d12(3,33)                                           1 	(obj:0)
d12(3,36)                                           1 	(obj:0)
d12(3,39)                                           1 	(obj:0)
d21(2,4)                                            1 	(obj:0)
d21(2,5)                                            1 	(obj:0)
d21(3,13)                                           1 	(obj:0)
d21(3,14)                                           1 	(obj:0)
d21(3,15)                                           1 	(obj:0)
d21(3,16)                                           1 	(obj:0)
d21(3,17)                                           1 	(obj:0)
d21(3,19)                                           1 	(obj:0)
d21(3,22)                                           1 	(obj:0)
d21(3,23)                                           1 	(obj:0)
d21(3,25)                                           1 	(obj:0)
d21(3,31)                                           1 	(obj:0)
y2(3,24)                             960.592982999986 	(obj:0)
y2(3,27)                             960.592982999986 	(obj:0)
y2(3,30)                             960.592982999986 	(obj:0)
y2(3,33)                             960.592982999986 	(obj:0)
y2(3,36)                             960.592982999986 	(obj:0)
y2(3,39)                             960.592982999986 	(obj:0)
STE(1,1)                             9146.23399666665 	(obj:0)
STE(0,0)                                        11025 	(obj:0)
STE(1,2)                                        10143 	(obj:0)
STE(1,3)                               11055.56333385 	(obj:0)
STE(2,4)                             5618.23399666665 	(obj:0)
STE(2,5)                             6614.99999999994 	(obj:0)
STE(2,6)                             7832.45220333334 	(obj:0)
STE(2,7)                                         6615 	(obj:0)
STE(2,8)                             7611.76600333329 	(obj:0)
STE(2,9)                             8829.21820666667 	(obj:0)
STE(2,10)                            7527.56333384999 	(obj:0)
STE(2,11)                            8524.32933718328 	(obj:0)
STE(2,12)                            9741.78154051667 	(obj:0)
STE(3,13)                             3739.4679933333 	(obj:0)
STE(3,14)                            4736.23399666665 	(obj:0)
STE(3,15)                            5648.79733051664 	(obj:0)
STE(3,16)                            4736.23399666659 	(obj:0)
STE(3,17)                            5732.99999999994 	(obj:0)
STE(3,18)                            6645.56333384993 	(obj:0)
STE(3,19)                            5953.68619999999 	(obj:0)
STE(3,20)                            6950.45220333334 	(obj:0)
STE(3,21)                            7863.01553718333 	(obj:0)
STE(3,22)                            4736.23399666665 	(obj:0)
STE(3,23)                                        5733 	(obj:0)
STE(3,24)                            6645.56333384999 	(obj:0)
STE(3,25)                            5732.99999999994 	(obj:0)
STE(3,26)                            6729.76600333323 	(obj:0)
STE(3,27)                            7642.32933718328 	(obj:0)
STE(3,28)                            6950.45220333332 	(obj:0)
STE(3,29)                            7947.21820666667 	(obj:0)
STE(3,30)                            8859.78154051666 	(obj:0)
STE(3,31)                            5648.79733051664 	(obj:0)
STE(3,32)                            6645.56333384999 	(obj:0)
STE(3,33)                            7558.12666769997 	(obj:0)
STE(3,34)                            6645.56333384993 	(obj:0)
STE(3,35)                            7642.32933718328 	(obj:0)
STE(3,36)                            8554.89267103326 	(obj:0)
STE(3,37)                            7863.01553718332 	(obj:0)
STE(3,38)                            8859.78154051667 	(obj:0)
STE(3,39)                            9772.34487436666 	(obj:0)
y1(3,25)                             897.089403000015 	(obj:0)
y1(3,28)                             897.089403000015 	(obj:0)
y1(3,31)                             897.089403000015 	(obj:0)
y1(3,34)                             897.089403000015 	(obj:0)
y1(3,37)                             897.089403000015 	(obj:0)
BG(3)                                         3377.85 	(obj:10)
WB(1)                                3199.95851117552 	(obj:0)
AVE(1)                               3199.95851117552 	(obj:0)
AVE(2)                               3265.15049132519 	(obj:0)
WB(3)                                3291.35535332476 	(obj:0)
AVE(3)                               3291.35535332476 	(obj:0)
WG(2)                                3265.15049132519 	(obj:10)
BG(1)                                         3377.85 	(obj:10)
BG(2)                                 1627.3021586748 	(obj:10)
y1(1,1)                              897.089403000015 	(obj:0)
y1(2,4)                                        2381.4 	(obj:0)
y1(2,5)                              1484.31059700004 	(obj:0)
y1(2,6)                               388.60361399998 	(obj:0)
y1(2,7)                                        2381.4 	(obj:0)
y1(2,8)                              1484.31059700004 	(obj:0)
y1(2,9)                              388.603613999994 	(obj:0)
y1(2,10)                                       2381.4 	(obj:0)
y1(2,11)                             1484.31059700004 	(obj:0)
y1(2,12)                             388.603613999984 	(obj:0)
y1(3,13)                             897.089403000015 	(obj:0)
y1(3,16)                             897.089403000015 	(obj:0)
y1(3,19)                             897.089403000015 	(obj:0)
y1(3,22)                             897.089403000015 	(obj:0)
y2(1,3)                              960.592982999986 	(obj:0)
y2(3,15)                             960.592982999986 	(obj:0)
y2(3,18)                             960.592982999986 	(obj:0)
y2(3,21)                             960.592982999986 	(obj:0)
